10 3
2 0 1000 10
3 0 1000 10
2 0 1000 10
4 0 1000 10
2 0 1000 10
1 0 1000 10
3 0 1000 10
2 0 1000 10
4 0 1000 10
2 0 1000 10
0 1000
10 1000
10 1000
10 1000

50 50
60 60
70 50
10 10
60 40
20 20
20 0
30 10
20 80
30 90
10 90